NAME : XML100_2373_04
DIMENSION : 101
NB_CLUSTERS : 6
CLUSTERING_ALG : KMedoids
CLUSTERING_PARAMS : k(5)
CLUSTERS
1 0
2 1 6 7 16 17 25 30 40 42 45 55 56 58 62 64 65 74 84 86 89 91
3 10 15 18 26 31 33 34 43 53 60 69 71 72 78 83 85 95 98
4 9 19 35 39 52 54 79 82 93
5 4 5 8 13 14 23 24 36 38 46 49 51 57 59 61 67 70 80 81 92 94 97
6 2 3 11 12 20 21 22 27 28 29 32 37 41 44 47 48 50 63 66 68 73 75 76 77 87 88 90 96 99 100
EOF